100
128
31
48
9
42
62
52
34
55
47
53
11
13
33
20
46
50
27
49
30
50
60
15
36
40
63
36
1
16
41
17
36
53
39
17
63
24
54
43
53
38
57
26
43
39
51
48
52
50
17
17
27
53
57
14
27
32
4
36
33
23
28
49
53
17
25
38
31
23
21
28
19
49
3
31
32
28
25
24
22
1
13
1
24
34
25
29
30
19
2
20
13
48
18
5
21
31
41
5
32
3